c --- [ banner ] -------------------------------------------------------------
c 
c CaDiCaL SAT Solver
c Copyright (c) 2016-2023 A. Biere, M. Fleury, N. Froleyks, K. Fazekas, F. Pollitt
c 
c Version 1.8.0 831669281271639e0f5193380c1ae3a8b18379d2
c g++ (Ubuntu 11.3.0-1ubuntu1~22.04) 11.3.0 -Wall -Wextra -O3 -DNDEBUG
c Sun Oct 8 09:51:12 CEST 2023 Linux LAPTOP-7AI9Q2JQ 5.10.102.1-microsoft-standard-WSL2 x86_64
c 
c --- [ parsing input ] ------------------------------------------------------
c 
c reading DIMACS file from 'dimacs/in_0000.cnf'
c opening file to read 'dimacs/in_0000.cnf'
c found 'p cnf 729 3189' header
c parsed 3189 clauses in 0.00 seconds process time
c 
c --- [ options ] ------------------------------------------------------------
c 
c all options are set to their default value
c 
c --- [ solving ] ------------------------------------------------------------
c 
c time measured in process time since initialization
c 
c  seconds  reductions  redundant irredundant
c         MB    restarts       trail    variables
c          level   conflicts       glue     remaining
c 
c *  0.01  4  0 0   0    0    0  0% 0 2328 459 63%
c {  0.01  4  0 0   0    0    0  0% 0 2328 459 63%
c i  0.01  4  6 0  17  183   72 44% 4 2328 458 63%
c -  0.01  4 10 1  20  300   66 49% 4 1981 458 63%
c i  0.01  4 12 1  20  342   86 52% 4 1981 457 63%
c i  0.01  4 12 1  20  345   87 52% 4 1981 456 63%
c i  0.01  4 12 1  20  368   93 52% 4 1981 455 62%
c i  0.01  4 12 1  20  378  100 52% 4 1981 454 62%
c i  0.01  4 12 1  20  380  101 52% 4 1981 453 62%
c i  0.01  4 11 1  32  495  172 52% 4 1981 442 61%
c i  0.01  4 11 1  52  595  236 51% 4 1981 441 60%
c i  0.01  4 11 1  52  626  264 52% 4 1981 440 60%
c -  0.01  4 11 2  88  900  360 53% 4 1877 440 60%
c i  0.02  4 11 2  93  979  418 53% 4 1877 439 60%
c }  0.02  4 11 2  93 1001  436 53% 4 1877 439 60%
c [  0.02  4  0 2  93 1001  436  0% 0 1877 439 60%
c O  0.02  4  4 2  93 1002  437 47% 4 1877 439 60%
c i  0.02  4  5 2  93 1045  445 48% 3 1877 438 60%
c i  0.02  4  9 2  93 1265  614 52% 4 1877 437 60%
c i  0.02  4  8 2  93 1334  642 52% 4 1877 436 60%
c 
c  seconds  reductions  redundant irredundant
c         MB    restarts       trail    variables
c          level   conflicts       glue     remaining
c 
c i  0.02  4 10 2  93 1546  778 56% 4 1877 435 60%
c i  0.02  4 10 2  93 1595  807 58% 4 1877 434 60%
c i  0.02  4 10 2  93 1636  826 57% 4 1877 424 58%
c i  0.02  4 10 2  93 1675  853 57% 4 1877 423 58%
c -  0.02  4 12 3  93 1800  685 60% 4 1778 423 58%
c i  0.02  4 12 3  93 1821  705 61% 4 1778 422 58%
c i  0.02  4 13 3  93 1878  757 62% 5 1778 421 58%
c ]  0.03  4 13 3  93 1986  855 64% 5 1778 421 58%
c 1  0.03  4 13 3  93 1986  855 64% 5 1778 421 58%
c 
c --- [ result ] -------------------------------------------------------------
c 
s SATISFIABLE
v -1 -2 -3 -4 5 -6 -7 -8 -9 -10 -11 12 -13 -14 -15 -16 -17 -18 -19 -20 -21 22
v -23 -24 -25 -26 -27 -28 -29 -30 -31 -32 33 -34 -35 -36 -37 -38 -39 -40 -41
v -42 43 -44 -45 -46 -47 -48 -49 -50 -51 -52 53 -54 -55 -56 -57 -58 -59 -60
v -61 -62 63 64 -65 -66 -67 -68 -69 -70 -71 -72 -73 74 -75 -76 -77 -78 -79 -80
v -81 -82 -83 -84 -85 -86 87 -88 -89 -90 -91 -92 -93 -94 -95 -96 97 -98 -99
v -100 101 -102 -103 -104 -105 -106 -107 -108 109 -110 -111 -112 -113 -114
v -115 -116 -117 -118 -119 -120 -121 -122 -123 -124 -125 126 -127 -128 -129
v -130 131 -132 -133 -134 -135 -136 -137 138 -139 -140 -141 -142 -143 -144
v -145 -146 -147 148 -149 -150 -151 -152 -153 -154 -155 -156 -157 -158 -159
v -160 161 -162 163 -164 -165 -166 -167 -168 -169 -170 -171 -172 -173 -174
v -175 -176 -177 -178 -179 180 -181 -182 -183 -184 -185 -186 -187 188 -189
v -190 -191 192 -193 -194 -195 -196 -197 -198 -199 -200 -201 202 -203 -204
v -205 -206 -207 -208 209 -210 -211 -212 -213 -214 -215 -216 -217 -218 -219
v -220 221 -222 -223 -224 -225 -226 -227 -228 -229 -230 231 -232 -233 -234
v -235 -236 -237 -238 -239 -240 241 -242 -243 -244 -245 -246 -247 -248 -249
v -250 251 -252 -253 -254 -255 -256 257 -258 -259 -260 -261 -262 -263 -264
v -265 -266 -267 -268 -269 270 -271 -272 -273 -274 -275 -276 277 -278 -279
v -280 -281 -282 -283 -284 285 -286 -287 -288 289 -290 -291 -292 -293 -294
v -295 -296 -297 -298 -299 -300 301 -302 -303 -304 -305 -306 -307 308 -309
v -310 -311 -312 -313 -314 -315 -316 -317 318 -319 -320 -321 -322 -323 -324
v -325 -326 -327 328 -329 -330 -331 -332 -333 -334 335 -336 -337 -338 -339
v -340 -341 -342 -343 -344 -345 -346 -347 348 -349 -350 -351 -352 -353 -354
v -355 -356 -357 -358 359 -360 -361 -362 -363 -364 365 -366 -367 -368 -369
v -370 -371 372 -373 -374 -375 -376 -377 -378 -379 -380 -381 -382 -383 -384
v 385 -386 -387 -388 -389 -390 -391 -392 -393 -394 -395 396 397 -398 -399 -400
v -401 -402 -403 -404 -405 -406 -407 -408 -409 -410 -411 412 -413 -414 415
v -416 -417 -418 -419 -420 -421 -422 -423 -424 -425 426 -427 -428 -429 -430
v -431 -432 -433 -434 -435 -436 -437 -438 -439 -440 441 -442 443 -444 -445
v -446 -447 -448 -449 -450 -451 -452 -453 454 -455 -456 -457 -458 -459 -460
v -461 -462 -463 -464 -465 -466 467 -468 -469 -470 -471 -472 473 -474 -475
v -476 -477 -478 -479 -480 -481 -482 483 -484 -485 -486 -487 -488 -489 -490
v -491 -492 -493 -494 495 -496 -497 -498 -499 -500 501 -502 -503 -504 505 -506
v -507 -508 -509 -510 -511 -512 -513 -514 -515 -516 -517 518 -519 -520 -521
v -522 -523 -524 525 -526 -527 -528 -529 -530 -531 -532 -533 -534 -535 -536
v -537 538 -539 -540 -541 542 -543 -544 -545 -546 -547 -548 -549 -550 -551
v -552 -553 -554 -555 -556 557 -558 -559 -560 -561 562 -563 -564 -565 -566
v -567 -568 569 -570 -571 -572 -573 -574 -575 -576 -577 -578 -579 -580 -581
v -582 -583 584 -585 -586 -587 -588 -589 -590 -591 592 -593 -594 -595 -596
v -597 598 -599 -600 -601 -602 -603 604 -605 -606 -607 -608 -609 -610 -611
v -612 -613 -614 -615 -616 -617 -618 -619 -620 621 -622 -623 -624 -625 -626
v 627 -628 -629 -630 -631 -632 633 -634 -635 -636 -637 -638 -639 -640 -641
v -642 -643 644 -645 -646 -647 -648 -649 -650 651 -652 -653 -654 -655 -656
v -657 -658 -659 -660 661 -662 -663 -664 -665 -666 -667 -668 -669 -670 671
v -672 -673 -674 -675 -676 677 -678 -679 -680 -681 -682 -683 -684 -685 -686
v -687 -688 -689 -690 -691 692 -693 -694 -695 -696 -697 -698 699 -700 -701
v -702 703 -704 -705 -706 -707 -708 -709 -710 -711 -712 -713 -714 -715 -716
v -717 718 -719 -720 -721 -722 -723 -724 -725 -726 -727 -728 729 0
c 
c --- [ run-time profiling ] -------------------------------------------------
c 
c process time taken by individual solving procedures
c (percentage relative to process time for solving)
c 
c         0.02   97.40% search
c         0.01   50.05% stable
c         0.01   45.58% unstable
c         0.00   14.32% parse
c         0.00    0.24% lucky
c         0.00    0.00% simplify
c   =================================
c         0.02   73.87% solve
c 
c last line shows process time for solving
c (percentage relative to total process time)
c 
c --- [ statistics ] ---------------------------------------------------------
c 
c chronological:               545        27.44 %  of conflicts
c conflicts:                  1986    103362.13    per second
c decisions:                  3064    159467.06    per second
c fixed:                       308        42.25 %  of all variables
c learned:                    1971        99.24 %  per conflict
c learned_lits:              21611       100.00 %  learned literals
c minimized:                     0         0.00 %  learned literals
c shrunken:                   6858        31.73 %  learned literals
c minishrunken:                646         2.99 %  learned literals
c otfs:                         25         1.26 %  of conflict
c propagations:              50965         2.65 M  per second
c reduced:                      51         2.57 %  per conflict
c rephased:                      1      1986.00    interval
c restarts:                     93        21.35    interval
c stabilizing:                   1        49.60 %  of conflicts
c subsumed:                    688         8.04 %  of all clauses
c strengthened:                 25         0.29 %  of all clauses
c 
c seconds are measured in process time for solving
c 
c --- [ resources ] ----------------------------------------------------------
c 
c total process time since initialization:         0.03    seconds
c total real time since initialization:            0.13    seconds
c maximum resident set size of process:            4.45    MB
c 
c --- [ shutting down ] ------------------------------------------------------
c 
c exit 10
